c preprocessed version of 1k61_graph, 56 vertices, 564 edges
p td 56 564
0 1
0 28
0 4
0 7
0 9
0 2
0 3
2 1
3 1
6 1
9 1
12 1
11 1
8 1
20 1
27 1
44 1
29 1
25 1
7 1
4 1
43 1
28 1
1 10
1 5
1 21
1 19
3 2
2 5
2 7
2 8
2 9
2 6
3 4
3 7
3 13
3 25
3 11
3 12
3 9
3 6
4 5
9 4
11 4
7 4
4 21
25 4
27 4
4 28
29 4
4 19
4 43
44 4
13 4
6 5
8 5
9 5
11 5
12 5
15 5
18 5
20 5
24 5
26 5
23 5
34 5
22 5
40 5
27 5
44 5
25 5
7 5
28 5
19 5
21 5
5 10
6 7
6 24
6 20
6 8
6 11
6 16
6 12
6 9
8 7
9 7
11 7
12 7
14 7
18 7
20 7
26 7
23 7
22 7
40 7
27 7
44 7
29 7
46 7
30 7
25 7
13 7
7 10
7 21
7 19
7 28
7 43
9 8
12 8
16 8
14 8
11 8
8 19
8 25
8 30
8 44
8 33
8 23
8 17
8 24
8 20
8 18
8 15
9 10
9 19
9 28
9 13
9 25
9 44
9 23
9 24
9 20
9 18
9 11
9 14
9 16
9 12
11 10
17 10
18 10
20 10
24 10
26 10
23 10
31 10
32 10
35 10
41 10
34 10
42 10
22 10
37 10
40 10
27 10
47 10
44 10
29 10
30 10
25 10
43 10
19 10
21 10
12 11
16 11
14 11
11 19
11 13
11 25
11 30
11 29
11 44
11 47
11 40
11 22
11 23
11 26
11 24
11 20
11 18
11 15
12 13
12 25
12 20
12 18
12 15
12 14
12 16
14 13
18 13
20 13
25 13
29 13
13 19
30 13
44 13
46 13
14 15
16 14
14 17
14 25
14 30
14 44
14 18
16 15
15 25
15 30
15 33
15 17
15 24
15 20
15 18
16 17
16 24
18 17
20 17
24 17
17 25
17 30
17 44
17 47
17 40
17 32
17 31
17 33
17 23
17 26
18 19
18 25
18 30
18 46
18 44
18 47
18 40
18 22
18 31
18 26
18 24
18 20
20 19
19 21
22 19
23 19
25 19
26 19
27 19
28 19
29 19
32 19
34 19
42 19
37 19
40 19
45 19
47 19
44 19
46 19
30 19
43 19
20 21
20 25
20 30
20 29
20 44
20 47
20 27
20 40
20 22
20 34
20 32
20 33
20 23
20 26
20 24
22 21
28 21
27 21
37 21
40 21
42 21
43 21
39 21
44 21
29 21
23 22
22 25
22 28
26 22
32 22
41 22
34 22
42 22
22 43
22 29
22 44
22 47
22 45
22 27
22 40
22 38
22 39
22 37
24 23
26 23
23 25
23 44
23 40
23 42
23 34
23 35
23 32
23 31
23 33
24 25
24 44
24 34
24 35
24 31
24 33
24 26
26 25
30 25
40 25
27 25
44 25
29 25
47 25
46 25
26 27
26 30
26 29
26 44
26 47
26 40
26 38
26 37
26 42
26 34
26 41
26 32
26 31
26 33
27 28
32 27
38 27
37 27
40 27
42 27
39 27
27 43
27 29
27 44
27 47
27 45
29 28
43 28
29 30
40 29
29 43
39 29
44 29
45 29
29 46
47 29
31 30
38 30
40 30
45 30
47 30
44 30
46 30
31 32
33 31
31 34
31 44
31 47
31 40
31 38
31 37
31 36
31 35
33 32
32 44
32 47
32 40
32 38
32 37
32 42
32 34
32 41
32 36
32 35
33 34
33 36
33 35
35 34
36 34
41 34
34 44
34 40
34 37
34 42
35 36
35 41
36 37
36 40
36 42
36 41
37 38
41 37
42 37
37 44
37 47
37 45
37 40
37 39
39 38
38 46
38 44
38 47
38 45
38 40
39 40
39 43
39 46
39 47
39 45
41 40
42 40
40 43
40 44
40 47
40 45
41 42
44 43
45 43
46 43
45 44
47 44
44 46
45 46
45 47
47 46
48 55
48 49
48 51
48 52
48 53
48 54
48 5
48 50
48 10
48 23
48 22
48 28
48 27
48 19
48 34
48 42
48 43
48 21
49 55
49 2
49 1
49 6
49 52
49 8
49 9
49 50
49 5
49 7
49 10
49 20
49 51
49 23
49 24
49 28
49 21
49 53
49 54
50 55
50 1
50 5
50 8
50 9
50 11
50 18
50 20
50 24
50 26
50 23
50 33
50 32
50 35
50 34
50 22
50 40
50 44
50 25
50 7
50 19
50 10
50 51
50 52
50 53
50 54
51 55
51 5
51 10
51 20
51 23
51 32
51 35
51 41
51 34
51 42
51 22
51 40
51 21
51 52
51 53
51 54
52 55
52 6
52 8
52 20
52 24
52 23
52 33
52 34
52 5
52 53
52 54
53 55
53 54
53 10
53 5
53 42
53 34
53 36
53 35
53 32
53 33
53 23
53 24
53 20
54 55
54 23
54 34
54 35
54 42
55 0
55 2
55 9
55 20
55 44
55 7
55 4
55 43
55 28
55 1
55 19
55 21
55 10
55 5
